0.0 658.0 275.0 404.0 803.0 163.0 969.0 561.0 80.0 239.0 
658.0 0.0 812.0 304.0 770.0 123.0 5.0 23.0 724.0 742.0 
275.0 812.0 0.0 537.0 253.0 73.0 488.0 820.0 20.0 392.0 
404.0 304.0 537.0 0.0 411.0 150.0 168.0 275.0 52.0 499.0 
803.0 770.0 253.0 411.0 0.0 5.0 683.0 95.0 761.0 549.0 
163.0 123.0 73.0 150.0 5.0 0.0 235.0 754.0 568.0 292.0 
969.0 5.0 488.0 168.0 683.0 235.0 0.0 497.0 921.0 953.0 
561.0 23.0 820.0 275.0 95.0 754.0 497.0 0.0 969.0 877.0 
80.0 724.0 20.0 52.0 761.0 568.0 921.0 969.0 0.0 641.0 
239.0 742.0 392.0 499.0 549.0 292.0 953.0 877.0 641.0 0.0 
